100 100 100
50
91 92 42
82 83 37
45 99 88
97 84 23
84 85 14
30 69 88
66 80 9
100 89 5
68 23 93
82 78 29
77 7 93
21 22 43
79 49 77
69 87 33
90 67 50
20 72 100
11 93 93
86 74 2
14 8 42
88 89 43
86 74 39
5 80 99
79 74 22
10 66 84
85 37 66
84 43 67
83 3 74
88 84 77
99 69 47
49 97 98
67 74 29
98 89 35
93 70 10
88 70 73
92 98 15
88 80 8
81 84 1
14 90 67
64 59 92
74 50 55
94 96 15
79 23 80
74 91 32
90 89 26
92 73 38
82 46 84
91 92 84
99 75 32
73 26 74
12 9 42
